language ESSENCE' 1.0
letting lastdx=99
letting cage be [
[16,7,7,0,0, 0,0, 0,0, 0,0],
[15,10,1,0,0, 0,0, 0,0, 0,0],
[16,14,16,0,0, 0,0, 0,0, 0,0],
[6,11,12,0,0, 0,0, 0,0, 0,0],
[5,2,7,0,0, 0,0, 0,0, 0,0],
[11,12,7,0,0, 0,0, 0,0, 0,0],
[66,5,12,5,13,6,13,7,13,8,13],
[7,5,2,0,0, 0,0, 0,0, 0,0],
[17,5,5,4,5,0,0, 0,0, 0,0],
[16,9,15,0,0, 0,0, 0,0, 0,0],
[3,2,4,0,0, 0,0, 0,0, 0,0],
[3,12,2,0,0, 0,0, 0,0, 0,0],
[34,3,8,4,8,4,9,3,9,3,10],
[57,1,1,1,2,2,2,3,2,4,2],
[25,15,5,15,6,0,0, 0,0, 0,0],
[37,15,15,14,15,13,15,12,15,11,15],
[13,12,11,11,11,0,0, 0,0, 0,0],
[30,16,6,16,5,16,4,16,3,0,0],
[25,4,16,3,16,0,0, 0,0, 0,0],
[31,2,5,2,6,1,6,1,5,0,0],
[42,4,15,4,14,3,14,3,15,2,15],
[21,6,1,5,1,0,0, 0,0, 0,0],
[11,14,5,0,0, 0,0, 0,0, 0,0],
[22,16,8,15,8,14,8,0,0, 0,0],
[8,3,5,0,0, 0,0, 0,0, 0,0],
[30,6,9,7,9,8,9,9,9,0,0],
[20,14,7,13,7,0,0, 0,0, 0,0],
[5,11,5,0,0, 0,0, 0,0, 0,0],
[8,1,13,0,0, 0,0, 0,0, 0,0],
[22,12,3,12,4,12,5,0,0, 0,0],
[52,2,8,2,9,2,10,1,10,1,11],
[15,13,1,12,1,0,0, 0,0, 0,0],
[38,13,8,13,9,13,10,13,11,14,11],
[39,8,10,8,11,8,12,9,12,10,12],
[19,1,9,1,8,1,7,0,0, 0,0],
[9,7,11,0,0, 0,0, 0,0, 0,0],
[13,11,13,0,0, 0,0, 0,0, 0,0],
[33,9,14,8,14,7,14,0,0, 0,0],
[26,3,7,3,6,0,0, 0,0, 0,0],
[7,8,16,7,16,0,0, 0,0, 0,0],
[28,2,14,1,14,1,15,1,16,2,16],
[16,1,4,0,0, 0,0, 0,0, 0,0],
[44,12,10,11,10,11,9,10,9,0,0],
[39,11,3,10,3,10,4,11,4,0,0],
[12,6,5,7,5,0,0, 0,0, 0,0],
[38,8,4,8,3,8,2,8,1,0,0],
[22,11,6,10,6,10,7,0,0, 0,0],
[23,9,7,9,8,0,0, 0,0, 0,0],
[17,9,13,10,13,10,14,0,0, 0,0],
[19,11,7,11,8,10,8,0,0, 0,0],
[24,6,12,7,12,6,11,5,11,0,0],
[36,14,3,15,3,15,2,14,2,14,1],
[21,13,13,12,13,12,14,11,14,0,0],
[23,3,4,4,4,4,3,3,3,0,0],
[39,13,16,12,16,11,16,0,0, 0,0],
[36,16,2,16,1,15,1,0,0, 0,0],
[3,14,9,0,0, 0,0, 0,0, 0,0],
[26,7,4,7,3,7,2,7,1,0,0],
[7,8,15,0,0, 0,0, 0,0, 0,0],
[10,2,13,0,0, 0,0, 0,0, 0,0],
[53,12,6,13,6,14,6,13,5,0,0],
[9,10,5,0,0, 0,0, 0,0, 0,0],
[11,11,1,0,0, 0,0, 0,0, 0,0],
[9,4,6,0,0, 0,0, 0,0, 0,0],
[10,5,3,0,0, 0,0, 0,0, 0,0],
[36,4,13,3,13,3,12,4,12,0,0],
[42,8,7,8,8,7,8,0,0, 0,0],
[11,7,10,0,0, 0,0, 0,0, 0,0],
[42,15,12,14,12,13,12,12,12,0,0],
[14,5,15,5,14,0,0, 0,0, 0,0],
[14,16,13,15,13,0,0, 0,0, 0,0],
[24,2,3,1,3,0,0, 0,0, 0,0],
[9,6,7,0,0, 0,0, 0,0, 0,0],
[20,14,14,13,14,14,13,0,0, 0,0],
[16,16,11,16,12,0,0, 0,0, 0,0],
[5,16,7,15,7,0,0, 0,0, 0,0],
[37,5,16,6,16,6,15,6,14,7,15],
[25,1,12,2,12,2,11,0,0, 0,0],
[7,2,1,0,0, 0,0, 0,0, 0,0],
[6,3,1,4,1,0,0, 0,0, 0,0],
[15,3,11,0,0, 0,0, 0,0, 0,0],
[7,4,7,0,0, 0,0, 0,0, 0,0],
[14,4,10,4,11,0,0, 0,0, 0,0],
[15,5,4,0,0, 0,0, 0,0, 0,0],
[22,5,6,6,6,7,6,0,0, 0,0],
[33,5,9,5,10,6,10,0,0, 0,0],
[19,6,2,6,3,6,4,0,0, 0,0],
[22,8,5,9,5,9,6,8,6,0,0],
[32,9,1,9,2,9,3,9,4,0,0],
[9,9,10,0,0, 0,0, 0,0, 0,0],
[21,9,11,10,11,10,10,0,0, 0,0],
[19,9,16,10,16,10,15,0,0, 0,0],
[15,10,2,11,2,0,0, 0,0, 0,0],
[20,12,8,12,9,0,0, 0,0, 0,0],
[40,13,2,13,3,13,4,14,4,15,4],
[5,14,10,0,0, 0,0, 0,0, 0,0],
[13,15,9,16,9,0,0, 0,0, 0,0],
[25,15,10,15,11,16,10,0,0, 0,0],
[34,15,14,16,14,16,15,0,0, 0,0],
[14,15,16,16,16,0,0, 0,0, 0,0]
]
